(set-logic QF_BV)
(declare-fun v!43 () (_ BitVec 32))
(declare-fun t!39 () (_ BitVec 8))
(declare-fun t!38 () (_ BitVec 8))
(declare-fun t!40 () (_ BitVec 8))
(declare-fun t!41 () (_ BitVec 8))
(declare-fun t!1 () (_ BitVec 8))
(declare-fun t!0 () (_ BitVec 8))
(declare-fun t!2 () (_ BitVec 8))
(declare-fun t!6 () (_ BitVec 8))
(declare-fun t!10 () (_ BitVec 8))
(declare-fun t!14 () (_ BitVec 8))
(declare-fun t!18 () (_ BitVec 8))
(declare-fun t!22 () (_ BitVec 8))
(declare-fun t!26 () (_ BitVec 8))
(declare-fun t!30 () (_ BitVec 8))
(declare-fun t!34 () (_ BitVec 8))
(declare-fun t!42 () (_ BitVec 8))
(declare-fun t!3 () (_ BitVec 8))
(declare-fun t!4 () (_ BitVec 8))
(declare-fun t!5 () (_ BitVec 8))
(declare-fun t!7 () (_ BitVec 8))
(declare-fun t!8 () (_ BitVec 8))
(declare-fun t!9 () (_ BitVec 8))
(declare-fun t!11 () (_ BitVec 8))
(declare-fun t!12 () (_ BitVec 8))
(declare-fun t!13 () (_ BitVec 8))
(declare-fun t!15 () (_ BitVec 8))
(declare-fun t!16 () (_ BitVec 8))
(declare-fun t!17 () (_ BitVec 8))
(declare-fun t!19 () (_ BitVec 8))
(declare-fun t!20 () (_ BitVec 8))
(declare-fun t!21 () (_ BitVec 8))
(declare-fun t!23 () (_ BitVec 8))
(declare-fun t!24 () (_ BitVec 8))
(declare-fun t!25 () (_ BitVec 8))
(declare-fun t!27 () (_ BitVec 8))
(declare-fun t!28 () (_ BitVec 8))
(declare-fun t!29 () (_ BitVec 8))
(declare-fun t!31 () (_ BitVec 8))
(declare-fun t!32 () (_ BitVec 8))
(declare-fun t!33 () (_ BitVec 8))
(declare-fun t!35 () (_ BitVec 8))
(declare-fun t!36 () (_ BitVec 8))
(declare-fun t!37 () (_ BitVec 8))
(declare-fun s!42 () (_ BitVec 8))
(declare-fun s!3 () (_ BitVec 8))
(declare-fun s!7 () (_ BitVec 8))
(declare-fun s!11 () (_ BitVec 8))
(declare-fun s!15 () (_ BitVec 8))
(declare-fun s!19 () (_ BitVec 8))
(declare-fun s!23 () (_ BitVec 8))
(declare-fun s!27 () (_ BitVec 8))
(declare-fun s!31 () (_ BitVec 8))
(declare-fun s!35 () (_ BitVec 8))
(declare-fun s!39 () (_ BitVec 8))
(declare-fun rf!42 () (_ BitVec 8))
(declare-fun v!4 () (_ BitVec 32))
(declare-fun rf!3 () (_ BitVec 8))
(declare-fun v!8 () (_ BitVec 32))
(declare-fun v!12 () (_ BitVec 32))
(declare-fun v!16 () (_ BitVec 32))
(declare-fun v!20 () (_ BitVec 32))
(declare-fun v!24 () (_ BitVec 32))
(declare-fun v!28 () (_ BitVec 32))
(declare-fun v!32 () (_ BitVec 32))
(declare-fun v!36 () (_ BitVec 32))
(declare-fun v!40 () (_ BitVec 32))
(declare-fun rf!7 () (_ BitVec 8))
(declare-fun rf!11 () (_ BitVec 8))
(declare-fun rf!15 () (_ BitVec 8))
(declare-fun rf!19 () (_ BitVec 8))
(declare-fun rf!23 () (_ BitVec 8))
(declare-fun rf!27 () (_ BitVec 8))
(declare-fun rf!31 () (_ BitVec 8))
(declare-fun rf!35 () (_ BitVec 8))
(declare-fun rf!39 () (_ BitVec 8))
(assert (and true (bvslt (_ bv9 32) v!43)))
(assert (bvult (_ bv0 8) t!39))
(assert (bvult (_ bv0 8) t!38))
(assert (bvult (_ bv0 8) t!40))
(assert (bvult (_ bv0 8) t!41))
(assert (bvult (_ bv0 8) t!1))
(assert (bvult (_ bv0 8) t!0))
(assert (bvult (_ bv0 8) t!2))
(assert (bvult (_ bv0 8) t!6))
(assert (bvult (_ bv0 8) t!10))
(assert (bvult (_ bv0 8) t!14))
(assert (bvult (_ bv0 8) t!18))
(assert (bvult (_ bv0 8) t!22))
(assert (bvult (_ bv0 8) t!26))
(assert (bvult (_ bv0 8) t!30))
(assert (bvult (_ bv0 8) t!34))
(assert (bvult (_ bv0 8) t!42))
(assert (bvult (_ bv0 8) t!3))
(assert (bvult (_ bv0 8) t!4))
(assert (bvult (_ bv0 8) t!5))
(assert (bvult (_ bv0 8) t!7))
(assert (bvult (_ bv0 8) t!8))
(assert (bvult (_ bv0 8) t!9))
(assert (bvult (_ bv0 8) t!11))
(assert (bvult (_ bv0 8) t!12))
(assert (bvult (_ bv0 8) t!13))
(assert (bvult (_ bv0 8) t!15))
(assert (bvult (_ bv0 8) t!16))
(assert (bvult (_ bv0 8) t!17))
(assert (bvult (_ bv0 8) t!19))
(assert (bvult (_ bv0 8) t!20))
(assert (bvult (_ bv0 8) t!21))
(assert (bvult (_ bv0 8) t!23))
(assert (bvult (_ bv0 8) t!24))
(assert (bvult (_ bv0 8) t!25))
(assert (bvult (_ bv0 8) t!27))
(assert (bvult (_ bv0 8) t!28))
(assert (bvult (_ bv0 8) t!29))
(assert (bvult (_ bv0 8) t!31))
(assert (bvult (_ bv0 8) t!32))
(assert (bvult (_ bv0 8) t!33))
(assert (bvult (_ bv0 8) t!35))
(assert (bvult (_ bv0 8) t!36))
(assert (bvult (_ bv0 8) t!37))
(assert (and (and (and (and (and (and (and (and (and (and (and (and (and (and (and (and (and (and (and (and (and (and (and (and (and (and (and (and (and (and (and (and (and (and (and (and (and (and (and (and (and (and true (bvult t!38 t!39)) (bvult t!39 t!40)) (bvult t!40 t!41)) (bvult t!0 t!1)) (bvult t!1 t!2)) (bvult t!2 t!6)) (bvult t!6 t!10)) (bvult t!10 t!14)) (bvult t!14 t!18)) (bvult t!18 t!22)) (bvult t!22 t!26)) (bvult t!26 t!30)) (bvult t!30 t!34)) (bvult t!34 t!38)) (bvult t!38 t!42)) (bvult t!2 t!3)) (bvult t!3 t!4)) (bvult t!4 t!5)) (bvult t!6 t!7)) (bvult t!7 t!8)) (bvult t!8 t!9)) (bvult t!10 t!11)) (bvult t!11 t!12)) (bvult t!12 t!13)) (bvult t!14 t!15)) (bvult t!15 t!16)) (bvult t!16 t!17)) (bvult t!18 t!19)) (bvult t!19 t!20)) (bvult t!20 t!21)) (bvult t!22 t!23)) (bvult t!23 t!24)) (bvult t!24 t!25)) (bvult t!26 t!27)) (bvult t!27 t!28)) (bvult t!28 t!29)) (bvult t!30 t!31)) (bvult t!31 t!32)) (bvult t!32 t!33)) (bvult t!34 t!35)) (bvult t!35 t!36)) (bvult t!36 t!37)))
(assert (bvult (_ bv0 8) s!42))
(assert (bvult (_ bv0 8) s!3))
(assert (bvult (_ bv0 8) s!7))
(assert (bvult (_ bv0 8) s!11))
(assert (bvult (_ bv0 8) s!15))
(assert (bvult (_ bv0 8) s!19))
(assert (bvult (_ bv0 8) s!23))
(assert (bvult (_ bv0 8) s!27))
(assert (bvult (_ bv0 8) s!31))
(assert (bvult (_ bv0 8) s!35))
(assert (bvult (_ bv0 8) s!39))
(assert (let ((_let_0 (= (_ bv1 8) rf!42))) (let ((_let_1 (and true true))) (let ((_let_2 (bvule t!1 t!42))) (let ((_let_3 (= (_ bv4 8) rf!42))) (let ((_let_4 (bvule t!4 t!42))) (let ((_let_5 (= (_ bv0 8) rf!3))) (let ((_let_6 (bvule t!0 t!3))) (let ((_let_7 (= (_ bv8 8) rf!3))) (let ((_let_8 (bvule t!8 t!3))) (let ((_let_9 (bvadd v!8 (_ bv1 32)))) (let ((_let_10 (= (_ bv12 8) rf!3))) (let ((_let_11 (bvule t!12 t!3))) (let ((_let_12 (bvadd v!12 (_ bv1 32)))) (let ((_let_13 (= (_ bv16 8) rf!3))) (let ((_let_14 (bvule t!16 t!3))) (let ((_let_15 (bvadd v!16 (_ bv1 32)))) (let ((_let_16 (= (_ bv20 8) rf!3))) (let ((_let_17 (bvule t!20 t!3))) (let ((_let_18 (bvadd v!20 (_ bv1 32)))) (let ((_let_19 (= (_ bv24 8) rf!3))) (let ((_let_20 (bvule t!24 t!3))) (let ((_let_21 (bvadd v!24 (_ bv1 32)))) (let ((_let_22 (= (_ bv28 8) rf!3))) (let ((_let_23 (bvule t!28 t!3))) (let ((_let_24 (bvadd v!28 (_ bv1 32)))) (let ((_let_25 (= (_ bv32 8) rf!3))) (let ((_let_26 (bvule t!32 t!3))) (let ((_let_27 (bvadd v!32 (_ bv1 32)))) (let ((_let_28 (= (_ bv36 8) rf!3))) (let ((_let_29 (bvule t!36 t!3))) (let ((_let_30 (bvadd v!36 (_ bv1 32)))) (let ((_let_31 (= (_ bv40 8) rf!3))) (let ((_let_32 (bvule t!40 t!3))) (let ((_let_33 (bvadd v!40 (_ bv1 32)))) (let ((_let_34 (= (_ bv0 8) rf!7))) (let ((_let_35 (bvule t!0 t!7))) (let ((_let_36 (= (_ bv8 8) rf!7))) (let ((_let_37 (bvule t!8 t!7))) (let ((_let_38 (= (_ bv12 8) rf!7))) (let ((_let_39 (bvule t!12 t!7))) (let ((_let_40 (= (_ bv16 8) rf!7))) (let ((_let_41 (bvule t!16 t!7))) (let ((_let_42 (= (_ bv20 8) rf!7))) (let ((_let_43 (bvule t!20 t!7))) (let ((_let_44 (= (_ bv24 8) rf!7))) (let ((_let_45 (bvule t!24 t!7))) (let ((_let_46 (= (_ bv28 8) rf!7))) (let ((_let_47 (bvule t!28 t!7))) (let ((_let_48 (= (_ bv32 8) rf!7))) (let ((_let_49 (bvule t!32 t!7))) (let ((_let_50 (= (_ bv36 8) rf!7))) (let ((_let_51 (bvule t!36 t!7))) (let ((_let_52 (= (_ bv40 8) rf!7))) (let ((_let_53 (bvule t!40 t!7))) (let ((_let_54 (= (_ bv0 8) rf!11))) (let ((_let_55 (bvule t!0 t!11))) (let ((_let_56 (= (_ bv8 8) rf!11))) (let ((_let_57 (bvule t!8 t!11))) (let ((_let_58 (= (_ bv12 8) rf!11))) (let ((_let_59 (bvule t!12 t!11))) (let ((_let_60 (= (_ bv16 8) rf!11))) (let ((_let_61 (bvule t!16 t!11))) (let ((_let_62 (= (_ bv20 8) rf!11))) (let ((_let_63 (bvule t!20 t!11))) (let ((_let_64 (= (_ bv24 8) rf!11))) (let ((_let_65 (bvule t!24 t!11))) (let ((_let_66 (= (_ bv28 8) rf!11))) (let ((_let_67 (bvule t!28 t!11))) (let ((_let_68 (= (_ bv32 8) rf!11))) (let ((_let_69 (bvule t!32 t!11))) (let ((_let_70 (= (_ bv36 8) rf!11))) (let ((_let_71 (bvule t!36 t!11))) (let ((_let_72 (= (_ bv40 8) rf!11))) (let ((_let_73 (bvule t!40 t!11))) (let ((_let_74 (= (_ bv0 8) rf!15))) (let ((_let_75 (bvule t!0 t!15))) (let ((_let_76 (= (_ bv8 8) rf!15))) (let ((_let_77 (bvule t!8 t!15))) (let ((_let_78 (= (_ bv12 8) rf!15))) (let ((_let_79 (bvule t!12 t!15))) (let ((_let_80 (= (_ bv16 8) rf!15))) (let ((_let_81 (bvule t!16 t!15))) (let ((_let_82 (= (_ bv20 8) rf!15))) (let ((_let_83 (bvule t!20 t!15))) (let ((_let_84 (= (_ bv24 8) rf!15))) (let ((_let_85 (bvule t!24 t!15))) (let ((_let_86 (= (_ bv28 8) rf!15))) (let ((_let_87 (bvule t!28 t!15))) (let ((_let_88 (= (_ bv32 8) rf!15))) (let ((_let_89 (bvule t!32 t!15))) (let ((_let_90 (= (_ bv36 8) rf!15))) (let ((_let_91 (bvule t!36 t!15))) (let ((_let_92 (= (_ bv40 8) rf!15))) (let ((_let_93 (bvule t!40 t!15))) (let ((_let_94 (= (_ bv0 8) rf!19))) (let ((_let_95 (bvule t!0 t!19))) (let ((_let_96 (= (_ bv8 8) rf!19))) (let ((_let_97 (bvule t!8 t!19))) (let ((_let_98 (= (_ bv12 8) rf!19))) (let ((_let_99 (bvule t!12 t!19))) (let ((_let_100 (= (_ bv16 8) rf!19))) (let ((_let_101 (bvule t!16 t!19))) (let ((_let_102 (= (_ bv20 8) rf!19))) (let ((_let_103 (bvule t!20 t!19))) (let ((_let_104 (= (_ bv24 8) rf!19))) (let ((_let_105 (bvule t!24 t!19))) (let ((_let_106 (= (_ bv28 8) rf!19))) (let ((_let_107 (bvule t!28 t!19))) (let ((_let_108 (= (_ bv32 8) rf!19))) (let ((_let_109 (bvule t!32 t!19))) (let ((_let_110 (= (_ bv36 8) rf!19))) (let ((_let_111 (bvule t!36 t!19))) (let ((_let_112 (= (_ bv40 8) rf!19))) (let ((_let_113 (bvule t!40 t!19))) (let ((_let_114 (= (_ bv0 8) rf!23))) (let ((_let_115 (bvule t!0 t!23))) (let ((_let_116 (= (_ bv8 8) rf!23))) (let ((_let_117 (bvule t!8 t!23))) (let ((_let_118 (= (_ bv12 8) rf!23))) (let ((_let_119 (bvule t!12 t!23))) (let ((_let_120 (= (_ bv16 8) rf!23))) (let ((_let_121 (bvule t!16 t!23))) (let ((_let_122 (= (_ bv20 8) rf!23))) (let ((_let_123 (bvule t!20 t!23))) (let ((_let_124 (= (_ bv24 8) rf!23))) (let ((_let_125 (bvule t!24 t!23))) (let ((_let_126 (= (_ bv28 8) rf!23))) (let ((_let_127 (bvule t!28 t!23))) (let ((_let_128 (= (_ bv32 8) rf!23))) (let ((_let_129 (bvule t!32 t!23))) (let ((_let_130 (= (_ bv36 8) rf!23))) (let ((_let_131 (bvule t!36 t!23))) (let ((_let_132 (= (_ bv40 8) rf!23))) (let ((_let_133 (bvule t!40 t!23))) (let ((_let_134 (= (_ bv0 8) rf!27))) (let ((_let_135 (bvule t!0 t!27))) (let ((_let_136 (= (_ bv8 8) rf!27))) (let ((_let_137 (bvule t!8 t!27))) (let ((_let_138 (= (_ bv12 8) rf!27))) (let ((_let_139 (bvule t!12 t!27))) (let ((_let_140 (= (_ bv16 8) rf!27))) (let ((_let_141 (bvule t!16 t!27))) (let ((_let_142 (= (_ bv20 8) rf!27))) (let ((_let_143 (bvule t!20 t!27))) (let ((_let_144 (= (_ bv24 8) rf!27))) (let ((_let_145 (bvule t!24 t!27))) (let ((_let_146 (= (_ bv28 8) rf!27))) (let ((_let_147 (bvule t!28 t!27))) (let ((_let_148 (= (_ bv32 8) rf!27))) (let ((_let_149 (bvule t!32 t!27))) (let ((_let_150 (= (_ bv36 8) rf!27))) (let ((_let_151 (bvule t!36 t!27))) (let ((_let_152 (= (_ bv40 8) rf!27))) (let ((_let_153 (bvule t!40 t!27))) (let ((_let_154 (= (_ bv0 8) rf!31))) (let ((_let_155 (bvule t!0 t!31))) (let ((_let_156 (= (_ bv8 8) rf!31))) (let ((_let_157 (bvule t!8 t!31))) (let ((_let_158 (= (_ bv12 8) rf!31))) (let ((_let_159 (bvule t!12 t!31))) (let ((_let_160 (= (_ bv16 8) rf!31))) (let ((_let_161 (bvule t!16 t!31))) (let ((_let_162 (= (_ bv20 8) rf!31))) (let ((_let_163 (bvule t!20 t!31))) (let ((_let_164 (= (_ bv24 8) rf!31))) (let ((_let_165 (bvule t!24 t!31))) (let ((_let_166 (= (_ bv28 8) rf!31))) (let ((_let_167 (bvule t!28 t!31))) (let ((_let_168 (= (_ bv32 8) rf!31))) (let ((_let_169 (bvule t!32 t!31))) (let ((_let_170 (= (_ bv36 8) rf!31))) (let ((_let_171 (bvule t!36 t!31))) (let ((_let_172 (= (_ bv40 8) rf!31))) (let ((_let_173 (bvule t!40 t!31))) (let ((_let_174 (= (_ bv0 8) rf!35))) (let ((_let_175 (bvule t!0 t!35))) (let ((_let_176 (= (_ bv8 8) rf!35))) (let ((_let_177 (bvule t!8 t!35))) (let ((_let_178 (= (_ bv12 8) rf!35))) (let ((_let_179 (bvule t!12 t!35))) (let ((_let_180 (= (_ bv16 8) rf!35))) (let ((_let_181 (bvule t!16 t!35))) (let ((_let_182 (= (_ bv20 8) rf!35))) (let ((_let_183 (bvule t!20 t!35))) (let ((_let_184 (= (_ bv24 8) rf!35))) (let ((_let_185 (bvule t!24 t!35))) (let ((_let_186 (= (_ bv28 8) rf!35))) (let ((_let_187 (bvule t!28 t!35))) (let ((_let_188 (= (_ bv32 8) rf!35))) (let ((_let_189 (bvule t!32 t!35))) (let ((_let_190 (= (_ bv36 8) rf!35))) (let ((_let_191 (bvule t!36 t!35))) (let ((_let_192 (= (_ bv40 8) rf!35))) (let ((_let_193 (bvule t!40 t!35))) (let ((_let_194 (= (_ bv0 8) rf!39))) (let ((_let_195 (bvule t!0 t!39))) (let ((_let_196 (= (_ bv8 8) rf!39))) (let ((_let_197 (bvule t!8 t!39))) (let ((_let_198 (= (_ bv12 8) rf!39))) (let ((_let_199 (bvule t!12 t!39))) (let ((_let_200 (= (_ bv16 8) rf!39))) (let ((_let_201 (bvule t!16 t!39))) (let ((_let_202 (= (_ bv20 8) rf!39))) (let ((_let_203 (bvule t!20 t!39))) (let ((_let_204 (= (_ bv24 8) rf!39))) (let ((_let_205 (bvule t!24 t!39))) (let ((_let_206 (= (_ bv28 8) rf!39))) (let ((_let_207 (bvule t!28 t!39))) (let ((_let_208 (= (_ bv32 8) rf!39))) (let ((_let_209 (bvule t!32 t!39))) (let ((_let_210 (= (_ bv36 8) rf!39))) (let ((_let_211 (bvule t!36 t!39))) (let ((_let_212 (= (_ bv40 8) rf!39))) (let ((_let_213 (bvule t!40 t!39))) (and (and (and (and (and (and (and (and (and (and (and (and (and (and (and (and (and (and (and (and (and (and (and (and (and (and (and (and (and (and (and (and (and (and (and (and (and (and (and (and (and (and (and (and (and (and (and (and (and (and (and (and (and (and (and (and (and (and (and (and (and (and (and (and (and (and (and (and (and (and (and (and (and (and (and (and (and (and (and (and (and (and (and (and (and (and (and (and (and (and (and (and (and (and (and (and (and (and (and (and (and (and (and (and (and (and (and (and (and (and (and (and (and (and (and (and (and (and (and (and (and (and (and (and (and (and (and (and (and (and (and (and (and (and (and (and (and (and (and (and (and (and (and (and (and (and (and (and (and (and (and (and (and (and (and (and (and (and (and (and (and (and (and (and (and (and (and (and (and (and (and (and (and (and (and (and (and (and (and (and (and (and (and (and (and (and (and (and (and (and (and (and (and (and (and (and (and (and (and (and (and (and (and (and (and (and (and (and (and (and (and (and (and (and (and true (=> _let_0 (and (and (and _let_1 _let_2) (= (_ bv0 32) v!43)) (= s!42 t!1)))) (=> (and _let_2 true) (bvule t!1 s!42))) (=> _let_3 (and (and (and _let_1 _let_4) (= v!4 v!43)) (= s!42 t!4)))) (=> (and _let_4 true) (bvule t!4 s!42))) (=> true (or _let_3 (or _let_0 false)))) (=> _let_5 (and (and (and _let_1 _let_6) (= (_ bv0 32) v!4)) (= s!3 t!0)))) (=> (and _let_6 true) (bvule t!0 s!3))) (=> _let_7 (and (and (and _let_1 _let_8) (= _let_9 v!4)) (= s!3 t!8)))) (=> (and _let_8 true) (bvule t!8 s!3))) (=> _let_10 (and (and (and _let_1 _let_11) (= _let_12 v!4)) (= s!3 t!12)))) (=> (and _let_11 true) (bvule t!12 s!3))) (=> _let_13 (and (and (and _let_1 _let_14) (= _let_15 v!4)) (= s!3 t!16)))) (=> (and _let_14 true) (bvule t!16 s!3))) (=> _let_16 (and (and (and _let_1 _let_17) (= _let_18 v!4)) (= s!3 t!20)))) (=> (and _let_17 true) (bvule t!20 s!3))) (=> _let_19 (and (and (and _let_1 _let_20) (= _let_21 v!4)) (= s!3 t!24)))) (=> (and _let_20 true) (bvule t!24 s!3))) (=> _let_22 (and (and (and _let_1 _let_23) (= _let_24 v!4)) (= s!3 t!28)))) (=> (and _let_23 true) (bvule t!28 s!3))) (=> _let_25 (and (and (and _let_1 _let_26) (= _let_27 v!4)) (= s!3 t!32)))) (=> (and _let_26 true) (bvule t!32 s!3))) (=> _let_28 (and (and (and _let_1 _let_29) (= _let_30 v!4)) (= s!3 t!36)))) (=> (and _let_29 true) (bvule t!36 s!3))) (=> _let_31 (and (and (and _let_1 _let_32) (= _let_33 v!4)) (= s!3 t!40)))) (=> (and _let_32 true) (bvule t!40 s!3))) (=> true (or _let_31 (or _let_28 (or _let_25 (or _let_22 (or _let_19 (or _let_16 (or _let_13 (or _let_10 (or _let_7 (or _let_5 false)))))))))))) (=> _let_34 (and (and (and _let_1 _let_35) (= (_ bv0 32) v!8)) (= s!7 t!0)))) (=> (and _let_35 true) (bvule t!0 s!7))) (=> _let_36 (and (and (and _let_1 _let_37) (= _let_9 v!8)) (= s!7 t!8)))) (=> (and _let_37 true) (bvule t!8 s!7))) (=> _let_38 (and (and (and _let_1 _let_39) (= _let_12 v!8)) (= s!7 t!12)))) (=> (and _let_39 true) (bvule t!12 s!7))) (=> _let_40 (and (and (and _let_1 _let_41) (= _let_15 v!8)) (= s!7 t!16)))) (=> (and _let_41 true) (bvule t!16 s!7))) (=> _let_42 (and (and (and _let_1 _let_43) (= _let_18 v!8)) (= s!7 t!20)))) (=> (and _let_43 true) (bvule t!20 s!7))) (=> _let_44 (and (and (and _let_1 _let_45) (= _let_21 v!8)) (= s!7 t!24)))) (=> (and _let_45 true) (bvule t!24 s!7))) (=> _let_46 (and (and (and _let_1 _let_47) (= _let_24 v!8)) (= s!7 t!28)))) (=> (and _let_47 true) (bvule t!28 s!7))) (=> _let_48 (and (and (and _let_1 _let_49) (= _let_27 v!8)) (= s!7 t!32)))) (=> (and _let_49 true) (bvule t!32 s!7))) (=> _let_50 (and (and (and _let_1 _let_51) (= _let_30 v!8)) (= s!7 t!36)))) (=> (and _let_51 true) (bvule t!36 s!7))) (=> _let_52 (and (and (and _let_1 _let_53) (= _let_33 v!8)) (= s!7 t!40)))) (=> (and _let_53 true) (bvule t!40 s!7))) (=> true (or _let_52 (or _let_50 (or _let_48 (or _let_46 (or _let_44 (or _let_42 (or _let_40 (or _let_38 (or _let_36 (or _let_34 false)))))))))))) (=> _let_54 (and (and (and _let_1 _let_55) (= (_ bv0 32) v!12)) (= s!11 t!0)))) (=> (and _let_55 true) (bvule t!0 s!11))) (=> _let_56 (and (and (and _let_1 _let_57) (= _let_9 v!12)) (= s!11 t!8)))) (=> (and _let_57 true) (bvule t!8 s!11))) (=> _let_58 (and (and (and _let_1 _let_59) (= _let_12 v!12)) (= s!11 t!12)))) (=> (and _let_59 true) (bvule t!12 s!11))) (=> _let_60 (and (and (and _let_1 _let_61) (= _let_15 v!12)) (= s!11 t!16)))) (=> (and _let_61 true) (bvule t!16 s!11))) (=> _let_62 (and (and (and _let_1 _let_63) (= _let_18 v!12)) (= s!11 t!20)))) (=> (and _let_63 true) (bvule t!20 s!11))) (=> _let_64 (and (and (and _let_1 _let_65) (= _let_21 v!12)) (= s!11 t!24)))) (=> (and _let_65 true) (bvule t!24 s!11))) (=> _let_66 (and (and (and _let_1 _let_67) (= _let_24 v!12)) (= s!11 t!28)))) (=> (and _let_67 true) (bvule t!28 s!11))) (=> _let_68 (and (and (and _let_1 _let_69) (= _let_27 v!12)) (= s!11 t!32)))) (=> (and _let_69 true) (bvule t!32 s!11))) (=> _let_70 (and (and (and _let_1 _let_71) (= _let_30 v!12)) (= s!11 t!36)))) (=> (and _let_71 true) (bvule t!36 s!11))) (=> _let_72 (and (and (and _let_1 _let_73) (= _let_33 v!12)) (= s!11 t!40)))) (=> (and _let_73 true) (bvule t!40 s!11))) (=> true (or _let_72 (or _let_70 (or _let_68 (or _let_66 (or _let_64 (or _let_62 (or _let_60 (or _let_58 (or _let_56 (or _let_54 false)))))))))))) (=> _let_74 (and (and (and _let_1 _let_75) (= (_ bv0 32) v!16)) (= s!15 t!0)))) (=> (and _let_75 true) (bvule t!0 s!15))) (=> _let_76 (and (and (and _let_1 _let_77) (= _let_9 v!16)) (= s!15 t!8)))) (=> (and _let_77 true) (bvule t!8 s!15))) (=> _let_78 (and (and (and _let_1 _let_79) (= _let_12 v!16)) (= s!15 t!12)))) (=> (and _let_79 true) (bvule t!12 s!15))) (=> _let_80 (and (and (and _let_1 _let_81) (= _let_15 v!16)) (= s!15 t!16)))) (=> (and _let_81 true) (bvule t!16 s!15))) (=> _let_82 (and (and (and _let_1 _let_83) (= _let_18 v!16)) (= s!15 t!20)))) (=> (and _let_83 true) (bvule t!20 s!15))) (=> _let_84 (and (and (and _let_1 _let_85) (= _let_21 v!16)) (= s!15 t!24)))) (=> (and _let_85 true) (bvule t!24 s!15))) (=> _let_86 (and (and (and _let_1 _let_87) (= _let_24 v!16)) (= s!15 t!28)))) (=> (and _let_87 true) (bvule t!28 s!15))) (=> _let_88 (and (and (and _let_1 _let_89) (= _let_27 v!16)) (= s!15 t!32)))) (=> (and _let_89 true) (bvule t!32 s!15))) (=> _let_90 (and (and (and _let_1 _let_91) (= _let_30 v!16)) (= s!15 t!36)))) (=> (and _let_91 true) (bvule t!36 s!15))) (=> _let_92 (and (and (and _let_1 _let_93) (= _let_33 v!16)) (= s!15 t!40)))) (=> (and _let_93 true) (bvule t!40 s!15))) (=> true (or _let_92 (or _let_90 (or _let_88 (or _let_86 (or _let_84 (or _let_82 (or _let_80 (or _let_78 (or _let_76 (or _let_74 false)))))))))))) (=> _let_94 (and (and (and _let_1 _let_95) (= (_ bv0 32) v!20)) (= s!19 t!0)))) (=> (and _let_95 true) (bvule t!0 s!19))) (=> _let_96 (and (and (and _let_1 _let_97) (= _let_9 v!20)) (= s!19 t!8)))) (=> (and _let_97 true) (bvule t!8 s!19))) (=> _let_98 (and (and (and _let_1 _let_99) (= _let_12 v!20)) (= s!19 t!12)))) (=> (and _let_99 true) (bvule t!12 s!19))) (=> _let_100 (and (and (and _let_1 _let_101) (= _let_15 v!20)) (= s!19 t!16)))) (=> (and _let_101 true) (bvule t!16 s!19))) (=> _let_102 (and (and (and _let_1 _let_103) (= _let_18 v!20)) (= s!19 t!20)))) (=> (and _let_103 true) (bvule t!20 s!19))) (=> _let_104 (and (and (and _let_1 _let_105) (= _let_21 v!20)) (= s!19 t!24)))) (=> (and _let_105 true) (bvule t!24 s!19))) (=> _let_106 (and (and (and _let_1 _let_107) (= _let_24 v!20)) (= s!19 t!28)))) (=> (and _let_107 true) (bvule t!28 s!19))) (=> _let_108 (and (and (and _let_1 _let_109) (= _let_27 v!20)) (= s!19 t!32)))) (=> (and _let_109 true) (bvule t!32 s!19))) (=> _let_110 (and (and (and _let_1 _let_111) (= _let_30 v!20)) (= s!19 t!36)))) (=> (and _let_111 true) (bvule t!36 s!19))) (=> _let_112 (and (and (and _let_1 _let_113) (= _let_33 v!20)) (= s!19 t!40)))) (=> (and _let_113 true) (bvule t!40 s!19))) (=> true (or _let_112 (or _let_110 (or _let_108 (or _let_106 (or _let_104 (or _let_102 (or _let_100 (or _let_98 (or _let_96 (or _let_94 false)))))))))))) (=> _let_114 (and (and (and _let_1 _let_115) (= (_ bv0 32) v!24)) (= s!23 t!0)))) (=> (and _let_115 true) (bvule t!0 s!23))) (=> _let_116 (and (and (and _let_1 _let_117) (= _let_9 v!24)) (= s!23 t!8)))) (=> (and _let_117 true) (bvule t!8 s!23))) (=> _let_118 (and (and (and _let_1 _let_119) (= _let_12 v!24)) (= s!23 t!12)))) (=> (and _let_119 true) (bvule t!12 s!23))) (=> _let_120 (and (and (and _let_1 _let_121) (= _let_15 v!24)) (= s!23 t!16)))) (=> (and _let_121 true) (bvule t!16 s!23))) (=> _let_122 (and (and (and _let_1 _let_123) (= _let_18 v!24)) (= s!23 t!20)))) (=> (and _let_123 true) (bvule t!20 s!23))) (=> _let_124 (and (and (and _let_1 _let_125) (= _let_21 v!24)) (= s!23 t!24)))) (=> (and _let_125 true) (bvule t!24 s!23))) (=> _let_126 (and (and (and _let_1 _let_127) (= _let_24 v!24)) (= s!23 t!28)))) (=> (and _let_127 true) (bvule t!28 s!23))) (=> _let_128 (and (and (and _let_1 _let_129) (= _let_27 v!24)) (= s!23 t!32)))) (=> (and _let_129 true) (bvule t!32 s!23))) (=> _let_130 (and (and (and _let_1 _let_131) (= _let_30 v!24)) (= s!23 t!36)))) (=> (and _let_131 true) (bvule t!36 s!23))) (=> _let_132 (and (and (and _let_1 _let_133) (= _let_33 v!24)) (= s!23 t!40)))) (=> (and _let_133 true) (bvule t!40 s!23))) (=> true (or _let_132 (or _let_130 (or _let_128 (or _let_126 (or _let_124 (or _let_122 (or _let_120 (or _let_118 (or _let_116 (or _let_114 false)))))))))))) (=> _let_134 (and (and (and _let_1 _let_135) (= (_ bv0 32) v!28)) (= s!27 t!0)))) (=> (and _let_135 true) (bvule t!0 s!27))) (=> _let_136 (and (and (and _let_1 _let_137) (= _let_9 v!28)) (= s!27 t!8)))) (=> (and _let_137 true) (bvule t!8 s!27))) (=> _let_138 (and (and (and _let_1 _let_139) (= _let_12 v!28)) (= s!27 t!12)))) (=> (and _let_139 true) (bvule t!12 s!27))) (=> _let_140 (and (and (and _let_1 _let_141) (= _let_15 v!28)) (= s!27 t!16)))) (=> (and _let_141 true) (bvule t!16 s!27))) (=> _let_142 (and (and (and _let_1 _let_143) (= _let_18 v!28)) (= s!27 t!20)))) (=> (and _let_143 true) (bvule t!20 s!27))) (=> _let_144 (and (and (and _let_1 _let_145) (= _let_21 v!28)) (= s!27 t!24)))) (=> (and _let_145 true) (bvule t!24 s!27))) (=> _let_146 (and (and (and _let_1 _let_147) (= _let_24 v!28)) (= s!27 t!28)))) (=> (and _let_147 true) (bvule t!28 s!27))) (=> _let_148 (and (and (and _let_1 _let_149) (= _let_27 v!28)) (= s!27 t!32)))) (=> (and _let_149 true) (bvule t!32 s!27))) (=> _let_150 (and (and (and _let_1 _let_151) (= _let_30 v!28)) (= s!27 t!36)))) (=> (and _let_151 true) (bvule t!36 s!27))) (=> _let_152 (and (and (and _let_1 _let_153) (= _let_33 v!28)) (= s!27 t!40)))) (=> (and _let_153 true) (bvule t!40 s!27))) (=> true (or _let_152 (or _let_150 (or _let_148 (or _let_146 (or _let_144 (or _let_142 (or _let_140 (or _let_138 (or _let_136 (or _let_134 false)))))))))))) (=> _let_154 (and (and (and _let_1 _let_155) (= (_ bv0 32) v!32)) (= s!31 t!0)))) (=> (and _let_155 true) (bvule t!0 s!31))) (=> _let_156 (and (and (and _let_1 _let_157) (= _let_9 v!32)) (= s!31 t!8)))) (=> (and _let_157 true) (bvule t!8 s!31))) (=> _let_158 (and (and (and _let_1 _let_159) (= _let_12 v!32)) (= s!31 t!12)))) (=> (and _let_159 true) (bvule t!12 s!31))) (=> _let_160 (and (and (and _let_1 _let_161) (= _let_15 v!32)) (= s!31 t!16)))) (=> (and _let_161 true) (bvule t!16 s!31))) (=> _let_162 (and (and (and _let_1 _let_163) (= _let_18 v!32)) (= s!31 t!20)))) (=> (and _let_163 true) (bvule t!20 s!31))) (=> _let_164 (and (and (and _let_1 _let_165) (= _let_21 v!32)) (= s!31 t!24)))) (=> (and _let_165 true) (bvule t!24 s!31))) (=> _let_166 (and (and (and _let_1 _let_167) (= _let_24 v!32)) (= s!31 t!28)))) (=> (and _let_167 true) (bvule t!28 s!31))) (=> _let_168 (and (and (and _let_1 _let_169) (= _let_27 v!32)) (= s!31 t!32)))) (=> (and _let_169 true) (bvule t!32 s!31))) (=> _let_170 (and (and (and _let_1 _let_171) (= _let_30 v!32)) (= s!31 t!36)))) (=> (and _let_171 true) (bvule t!36 s!31))) (=> _let_172 (and (and (and _let_1 _let_173) (= _let_33 v!32)) (= s!31 t!40)))) (=> (and _let_173 true) (bvule t!40 s!31))) (=> true (or _let_172 (or _let_170 (or _let_168 (or _let_166 (or _let_164 (or _let_162 (or _let_160 (or _let_158 (or _let_156 (or _let_154 false)))))))))))) (=> _let_174 (and (and (and _let_1 _let_175) (= (_ bv0 32) v!36)) (= s!35 t!0)))) (=> (and _let_175 true) (bvule t!0 s!35))) (=> _let_176 (and (and (and _let_1 _let_177) (= _let_9 v!36)) (= s!35 t!8)))) (=> (and _let_177 true) (bvule t!8 s!35))) (=> _let_178 (and (and (and _let_1 _let_179) (= _let_12 v!36)) (= s!35 t!12)))) (=> (and _let_179 true) (bvule t!12 s!35))) (=> _let_180 (and (and (and _let_1 _let_181) (= _let_15 v!36)) (= s!35 t!16)))) (=> (and _let_181 true) (bvule t!16 s!35))) (=> _let_182 (and (and (and _let_1 _let_183) (= _let_18 v!36)) (= s!35 t!20)))) (=> (and _let_183 true) (bvule t!20 s!35))) (=> _let_184 (and (and (and _let_1 _let_185) (= _let_21 v!36)) (= s!35 t!24)))) (=> (and _let_185 true) (bvule t!24 s!35))) (=> _let_186 (and (and (and _let_1 _let_187) (= _let_24 v!36)) (= s!35 t!28)))) (=> (and _let_187 true) (bvule t!28 s!35))) (=> _let_188 (and (and (and _let_1 _let_189) (= _let_27 v!36)) (= s!35 t!32)))) (=> (and _let_189 true) (bvule t!32 s!35))) (=> _let_190 (and (and (and _let_1 _let_191) (= _let_30 v!36)) (= s!35 t!36)))) (=> (and _let_191 true) (bvule t!36 s!35))) (=> _let_192 (and (and (and _let_1 _let_193) (= _let_33 v!36)) (= s!35 t!40)))) (=> (and _let_193 true) (bvule t!40 s!35))) (=> true (or _let_192 (or _let_190 (or _let_188 (or _let_186 (or _let_184 (or _let_182 (or _let_180 (or _let_178 (or _let_176 (or _let_174 false)))))))))))) (=> _let_194 (and (and (and _let_1 _let_195) (= (_ bv0 32) v!40)) (= s!39 t!0)))) (=> (and _let_195 true) (bvule t!0 s!39))) (=> _let_196 (and (and (and _let_1 _let_197) (= _let_9 v!40)) (= s!39 t!8)))) (=> (and _let_197 true) (bvule t!8 s!39))) (=> _let_198 (and (and (and _let_1 _let_199) (= _let_12 v!40)) (= s!39 t!12)))) (=> (and _let_199 true) (bvule t!12 s!39))) (=> _let_200 (and (and (and _let_1 _let_201) (= _let_15 v!40)) (= s!39 t!16)))) (=> (and _let_201 true) (bvule t!16 s!39))) (=> _let_202 (and (and (and _let_1 _let_203) (= _let_18 v!40)) (= s!39 t!20)))) (=> (and _let_203 true) (bvule t!20 s!39))) (=> _let_204 (and (and (and _let_1 _let_205) (= _let_21 v!40)) (= s!39 t!24)))) (=> (and _let_205 true) (bvule t!24 s!39))) (=> _let_206 (and (and (and _let_1 _let_207) (= _let_24 v!40)) (= s!39 t!28)))) (=> (and _let_207 true) (bvule t!28 s!39))) (=> _let_208 (and (and (and _let_1 _let_209) (= _let_27 v!40)) (= s!39 t!32)))) (=> (and _let_209 true) (bvule t!32 s!39))) (=> _let_210 (and (and (and _let_1 _let_211) (= _let_30 v!40)) (= s!39 t!36)))) (=> (and _let_211 true) (bvule t!36 s!39))) (=> _let_212 (and (and (and _let_1 _let_213) (= _let_33 v!40)) (= s!39 t!40)))) (=> (and _let_213 true) (bvule t!40 s!39))) (=> true (or _let_212 (or _let_210 (or _let_208 (or _let_206 (or _let_204 (or _let_202 (or _let_200 (or _let_198 (or _let_196 (or _let_194 false)))))))))))))))))))))))))))))))))))))))))))))))))))))))))))))))))))))))))))))))))))))))))))))))))))))))))))))))))))))))))))))))))))))))))))))))))))))))))))))))))))))))))))))))))))))))))))))))))))))))))))))))))))))))))))))))))))
(assert (and (and true (distinct t!1 t!4)) (distinct t!0 t!8 t!12 t!16 t!20 t!24 t!28 t!32 t!36 t!40)))
(check-sat)
